\ LP format - for model browsing. Use MPS format to capture full model detail.
Maximize
  3 x_1 + 4 x_2 + 2 x_3 + 9 x_4 + 10 x_5 + 3 x_6 + 7 x_7 + 4 x_8 + 10 x_9
   + x_10 + 3 x_11 + 7 x_12 + 3 x_13 + 7 x_14 + 9 x_15 + 4 x_16 + 4 x_17
   + 7 x_18 + 7 x_19 + 4 x_20
Subject To
 C_1: x_1 + 5 x_2 + 2 x_3 + 7 x_4 + 5 x_5 + 3 x_6 + 9 x_7 + 6 x_8 + 3 x_9
   + 7 x_10 + 9 x_11 + 5 x_12 + 10 x_13 + 2 x_14 + 6 x_15 + 10 x_16
   + 7 x_17 + 4 x_18 + 5 x_19 + 6 x_20 <= 56
 C_2: 4 x_1 + 7 x_2 + 2 x_3 + 8 x_4 + 3 x_5 + 10 x_6 + 4 x_7 + 8 x_8
   + 9 x_9 + 10 x_10 + x_11 + x_12 + 6 x_13 + 4 x_14 + 7 x_15 + 10 x_16
   + 8 x_17 + 7 x_18 + 7 x_19 + x_20 <= 58
 C_3: 3 x_1 + 6 x_2 + 7 x_3 + 5 x_4 + 9 x_5 + 2 x_6 + 4 x_7 + 5 x_8 + 7 x_9
   + 10 x_10 + 3 x_11 + 3 x_12 + 7 x_13 + 4 x_14 + 10 x_15 + x_16 + 6 x_17
   + 3 x_18 + x_19 + 6 x_20 <= 51
 C_4: 2 x_1 + x_2 + 8 x_3 + 7 x_4 + 7 x_5 + 4 x_6 + 8 x_7 + 4 x_8 + 10 x_9
   + 5 x_10 + 4 x_11 + 4 x_12 + 2 x_13 + 3 x_14 + 8 x_15 + 10 x_16 + 6 x_17
   + 3 x_18 + 5 x_19 + 3 x_20 <= 52
 C_5: 3 x_1 + 7 x_2 + 5 x_3 + x_4 + 2 x_5 + 6 x_6 + 3 x_7 + 9 x_8 + 9 x_9
   + 3 x_10 + 4 x_11 + 10 x_12 + 6 x_13 + x_14 + 9 x_15 + 2 x_16 + 6 x_17
   + 6 x_18 + 5 x_19 + 7 x_20 <= 52
Bounds
Binaries
 x_1 x_2 x_3 x_4 x_5 x_6 x_7 x_8 x_9 x_10 x_11 x_12 x_13 x_14 x_15 x_16
 x_17 x_18 x_19 x_20
End
